10									
0	926	80	331	208	13	452	837	414	161
436	0	756	288	593	846	353	485	124	372
854	253	0	237	447	970	797	226	257	315
339	342	542	0	913	342	133	109	137	891
909	630	503	490	0	531	966	687	782	388
144	962	850	258	489	0	135	404	313	948
264	792	157	898	843	956	0	607	382	575
748	167	489	115	329	371	571	0	277	339
668	230	992	635	520	843	985	902	0	361
18	188	242	484	950	129	382	324	851	0
